NAME boiling_srl_ilp
* Max problem is converted into Min one
ROWS
 N  OBJ
 L  constraint1_750
 L  constraint1_440
 L  constraint1_2380
 L  constraint2_750
 L  constraint2_751
 L  constraint2_752
 L  constraint2_753
 L  constraint2_440
 L  constraint2_441
 L  constraint2_442
 L  constraint2_443
 L  constraint2_2380
 L  constraint2_2381
 L  constraint2_2382
 L  constraint2_2383
COLUMNS
    MARKER    'MARKER'                 'INTORG'
    Z_75_0_0  OBJ       -1.0073008582599358e-03
    Z_75_0_0  constraint1_750  1
    Z_75_0_0  constraint2_750  1
    Z_75_0_1  OBJ       -3.3933774668889273e-04
    Z_75_0_1  constraint1_750  1
    Z_75_0_1  constraint2_751  1
    Z_75_0_2  OBJ       -1.0930108274460673e-03
    Z_75_0_2  constraint1_750  1
    Z_75_0_2  constraint2_752  1
    Z_75_0_3  OBJ       -6.6334167464227245e-01
    Z_75_0_3  constraint1_750  1
    Z_75_0_3  constraint2_753  1
    Z_75_0_4  OBJ       -2.3421867592533266e-01
    Z_75_0_4  constraint1_750  1
    Z_44_0_0  OBJ       -1.5362712092004162e-04
    Z_44_0_0  constraint1_440  1
    Z_44_0_0  constraint2_440  1
    Z_44_0_1  OBJ       -1.8375314599160498e-03
    Z_44_0_1  constraint1_440  1
    Z_44_0_1  constraint2_441  1
    Z_44_0_2  OBJ       -7.7611381009053115e-01
    Z_44_0_2  constraint1_440  1
    Z_44_0_2  constraint2_442  1
    Z_44_0_3  OBJ       -1.1504321312720178e-03
    Z_44_0_3  constraint1_440  1
    Z_44_0_3  constraint2_443  1
    Z_44_0_4  OBJ       -1.2074459919736089e-01
    Z_44_0_4  constraint1_440  1
    Z_238_0_0  OBJ       -3.4306521474122712e-04
    Z_238_0_0  constraint1_2380  1
    Z_238_0_0  constraint2_2380  1
    Z_238_0_1  OBJ       -9.0994980621137821e-04
    Z_238_0_1  constraint1_2380  1
    Z_238_0_1  constraint2_2381  1
    Z_238_0_2  OBJ       -7.5909175696000045e-02
    Z_238_0_2  constraint1_2380  1
    Z_238_0_2  constraint2_2382  1
    Z_238_0_3  OBJ       -4.2150916361381308e-01
    Z_238_0_3  constraint1_2380  1
    Z_238_0_3  constraint2_2383  1
    Z_238_0_4  OBJ       -4.0132864566923426e-01
    Z_238_0_4  constraint1_2380  1
    MARKER    'MARKER'                 'INTEND'
RHS
    RHS1      constraint1_750  1
    RHS1      constraint1_440  1
    RHS1      constraint1_2380  1
    RHS1      constraint2_750  1
    RHS1      constraint2_751  1
    RHS1      constraint2_752  1
    RHS1      constraint2_753  1
    RHS1      constraint2_440  1
    RHS1      constraint2_441  1
    RHS1      constraint2_442  1
    RHS1      constraint2_443  1
    RHS1      constraint2_2380  1
    RHS1      constraint2_2381  1
    RHS1      constraint2_2382  1
    RHS1      constraint2_2383  1
BOUNDS
 UP BND1      Z_75_0_0  1
 UP BND1      Z_75_0_1  1
 UP BND1      Z_75_0_2  1
 UP BND1      Z_75_0_3  1
 UP BND1      Z_75_0_4  1
 UP BND1      Z_44_0_0  1
 UP BND1      Z_44_0_1  1
 UP BND1      Z_44_0_2  1
 UP BND1      Z_44_0_3  1
 UP BND1      Z_44_0_4  1
 UP BND1      Z_238_0_0  1
 UP BND1      Z_238_0_1  1
 UP BND1      Z_238_0_2  1
 UP BND1      Z_238_0_3  1
 UP BND1      Z_238_0_4  1
ENDATA
